c turning on binary mode checking
c parsing input formula with 202048 variables and 780990 clauses
c finished parsing, read 2352462 bytes from proof file
c detected empty clause; start verification via backward checking
c 5007 of 780990 clauses in core                            
c 1693 of 99619 lemmas in core using 36354 resolution steps
c 0 RAT lemmas in core; 139 redundant literals in core lemmas
s VERIFIED
c verification time: 1.190 seconds
